p cnf 20 16
-13 5 19 -20 8 -3 -10 -9 0
-18 4 -1 13 10 -9 -6 -8 -11 -20 -14 5 -7 15 -19 0
20 6 -10 -15 12 -8 9 19 5 -3 -1 7 -11 13 -18 -17 -14 -4 -16 0
4 15 -20 0
16 -12 -14 0
-16 -14 -10 12 0
-3 -18 -15 12 20 -11 13 -1 -14 -6 7 8 -2 16 0
-10 8 -2 6 16 -5 14 0
-7 -18 9 11 -15 17 -6 -8 0
-18 10 -15 -7 3 9 0
1 19 4 -6 10 -14 3 -9 12 13 -8 2 -17 16 11 -15 -5 0
12 1 -19 -16 -14 0
-13 -12 19 15 -11 6 5 18 -14 3 -2 20 -1 0
11 -5 -9 0
-7 -12 0
-7 -9 0
